projected/problems_b25_r0_d7_m100_s666/_DIMACS/b25_d7_r0_s666_042.cnf
p cnf 263 468 25
c p show 1 2 3 4 5 6 7 8 9 10 11 12 13 14 15 16 17 18 19 20 21 22 23 24 25
-104 -20 0
-104 -16 0
-105 -1 0
-105 3 0
-106 105 104 0
-107 -7 0
-107 -8 0
-108 18 0
-108 -23 0
-109 108 107 0
-110 109 0
-110 106 0
-111 -18 21 0
-112 -8 2 0
-113 112 0
-113 111 0
-114 14 0
-114 -20 0
-115 -20 -3 0
-116 115 114 0
-117 116 113 0
-118 117 0
-118 110 0
-119 -9 23 0
-120 22 13 0
-121 120 0
-121 119 0
-122 20 21 0
-123 6 -17 0
-124 123 122 0
-125 124 0
-125 121 0
-126 13 -17 0
-127 -10 0
-127 -6 0
-128 127 126 0
-129 -13 0
-129 -7 0
-130 -24 0
-130 6 0
-131 -6 0
-131 24 0
-132 131 130 0
-133 132 0
-133 129 0
-134 133 0
-134 128 0
-135 134 0
-135 125 0
-136 135 118 0
-137 -15 -1 0
-138 11 -24 0
-139 138 0
-139 137 0
-140 18 0
-140 -11 0
-141 8 0
-141 21 0
-142 141 0
-142 140 0
-143 142 0
-143 139 0
-144 8 -9 0
-145 9 -8 0
-146 145 0
-146 144 0
-147 129 0
-147 146 0
-148 5 22 0
-149 20 9 0
-150 -9 -20 0
-151 150 0
-151 149 0
-152 151 0
-152 148 0
-153 152 147 0
-154 153 143 0
-155 16 -5 0
-156 -7 0
-156 2 0
-157 156 155 0
-158 6 0
-158 21 0
-159 24 -22 0
-160 159 158 0
-161 160 157 0
-162 -6 -21 0
-163 -24 0
-163 22 0
-164 163 0
-164 162 0
-165 -16 0
-165 5 0
-166 7 -2 0
-167 166 0
-167 165 0
-168 167 164 0
-169 168 0
-169 161 0
-170 -13 0
-170 10 0
-171 -2 3 0
-172 171 0
-172 170 0
-173 -24 22 0
-174 11 0
-174 -20 0
-175 174 0
-175 173 0
-176 175 172 0
-177 176 169 0
-178 177 0
-178 154 0
-179 178 0
-179 136 0
-180 15 0
-180 1 0
-181 -11 0
-181 24 0
-182 181 180 0
-183 -18 11 0
-184 -8 -21 0
-185 184 183 0
-186 185 182 0
-187 -8 0
-187 9 0
-188 -9 0
-188 8 0
-189 188 187 0
-190 13 7 0
-191 190 189 0
-192 -5 0
-192 -22 0
-193 -20 0
-193 -9 0
-194 9 0
-194 20 0
-195 194 193 0
-196 195 192 0
-197 196 0
-197 191 0
-198 197 0
-198 186 0
-199 164 0
-199 167 0
-200 157 0
-200 160 0
-201 200 199 0
-202 13 -10 0
-203 2 0
-203 -3 0
-204 203 202 0
-205 24 0
-205 -22 0
-206 -11 20 0
-207 206 205 0
-208 207 0
-208 204 0
-209 208 0
-209 201 0
-210 209 198 0
-211 20 16 0
-212 1 -3 0
-213 212 0
-213 211 0
-214 7 8 0
-215 -18 23 0
-216 215 0
-216 214 0
-217 216 213 0
-218 18 0
-218 -21 0
-219 8 0
-219 -2 0
-220 219 218 0
-221 -14 20 0
-222 20 0
-222 3 0
-223 222 0
-223 221 0
-224 223 0
-224 220 0
-225 224 217 0
-226 9 0
-226 -23 0
-227 -22 0
-227 -13 0
-228 227 226 0
-229 -20 0
-229 -21 0
-230 -6 0
-230 17 0
-231 230 0
-231 229 0
-232 231 228 0
-233 -13 0
-233 17 0
-234 10 6 0
-235 234 0
-235 233 0
-236 24 -6 0
-237 6 -24 0
-238 237 0
-238 236 0
-239 238 190 0
-240 239 235 0
-241 240 232 0
-242 241 0
-242 225 0
-243 242 0
-243 210 0
-244 243 179 0
-245 -21 0
-245 -8 0
-246 -1 0
-246 -12 0
-247 246 245 0
-248 -16 18 0
-249 21 -11 0
-250 249 248 0
-251 -21 0
-251 11 0
-252 16 0
-252 -18 0
-253 252 251 0
-254 253 0
-254 250 0
-255 254 247 0
-256 20 0
-256 -23 0
-257 -5 22 0
-258 257 0
-258 256 0
-259 -11 5 0
-260 -12 21 0
-261 260 0
-261 259 0
-262 261 0
-262 258 0
-263 262 255 0
-26 8 0
-26 4 0
-96 -23 0
-96 17 0
-97 96 0
-97 26 0
-98 23 -17 0
-99 -8 -4 0
-100 99 0
-100 98 0
-101 100 97 0
-102 4 0
-102 -2 0
-103 2 0
-103 -4 0
-27 103 102 0
-28 -10 0
-28 7 0
-29 -7 0
-29 10 0
-30 29 28 0
-31 30 27 0
-32 10 -7 0
-33 7 -10 0
-34 33 0
-34 32 0
-35 -4 2 0
-36 -2 4 0
-37 36 0
-37 35 0
-38 37 34 0
-39 38 0
-39 31 0
-40 39 101 0
-41 -22 0
-41 10 0
-42 -10 0
-42 13 0
-43 42 41 0
-44 16 -3 0
-45 1 5 0
-46 45 44 0
-47 46 43 0
-48 47 0
-48 40 0
-49 48 0
-49 263 0
-50 21 -21 0
-51 50 0
-52 18 0
-52 -17 0
-53 17 0
-53 -18 0
-54 53 52 0
-55 54 51 0
-56 -22 0
-56 1 0
-57 10 0
-57 -23 0
-58 57 56 0
-59 58 55 0
-60 22 -1 0
-61 -10 23 0
-62 61 0
-62 60 0
-63 -21 0
-63 21 0
-64 63 0
-65 -18 17 0
-66 -17 18 0
-67 66 0
-67 65 0
-68 67 0
-68 64 0
-69 68 62 0
-70 69 0
-70 59 0
-71 14 0
-71 22 0
-72 -17 -24 0
-73 72 71 0
-74 4 19 0
-75 -25 0
-76 75 74 0
-77 76 0
-77 73 0
-78 77 0
-78 70 0
-79 -15 0
-79 -12 0
-80 11 0
-80 -16 0
-81 80 0
-81 79 0
-82 -16 0
-82 -20 0
-83 8 0
-83 19 0
-84 83 82 0
-85 84 81 0
-86 9 0
-86 15 0
-87 -21 0
-87 -7 0
-88 87 86 0
-89 -2 7 0
-90 10 0
-90 13 0
-91 90 89 0
-92 91 88 0
-93 92 0
-93 85 0
-94 93 78 0
-95 94 0
-95 49 0
95 0
244 0
-180 -137 0
-181 -138 0
-182 -139 0
-183 -140 0
-140 -183 0
-141 -184 0
-142 -185 0
-185 -142 0
-186 -143 0
-143 -186 0
-146 -189 0
-190 -129 0
-129 -190 0
-147 -191 0
-191 -147 0
-192 -148 0
-151 -195 0
-195 -151 0
-196 -152 0
-197 -153 0
-153 -197 0
-154 -198 0
-162 -158 0
-158 -162 0
-159 -163 0
-160 -164 0
-164 -160 0
-165 -155 0
-156 -166 0
-166 -156 0
-167 -157 0
-157 -167 0
-169 -201 0
-201 -169 0
-170 -202 0
-203 -171 0
-171 -203 0
-172 -204 0
-173 -205 0
-205 -173 0
-206 -174 0
-207 -175 0
-175 -207 0
-176 -208 0
-208 -176 0
-209 -177 0
-177 -209 0
-178 -210 0
-104 -211 0
-211 -104 0
-105 -212 0
-212 -105 0
-213 -106 0
-107 -214 0
-214 -107 0
-108 -215 0
-215 -108 0
-216 -109 0
-217 -110 0
-110 -217 0
-218 -111 0
-219 -112 0
-220 -113 0
-113 -220 0
-221 -114 0
-222 -115 0
-223 -116 0
-116 -223 0
-117 -224 0
-118 -225 0
-226 -119 0
-227 -120 0
-228 -121 0
-229 -122 0
-230 -123 0
-231 -124 0
-232 -125 0
-125 -232 0
-126 -233 0
-233 -126 0
-127 -234 0
-234 -127 0
-235 -128 0
-238 -132 0
-132 -238 0
-133 -239 0
-239 -133 0
-240 -134 0
-134 -240 0
-135 -241 0
-136 -242 0
-242 -136 0
-249 -251 0
-251 -249 0
-248 -252 0
-96 -98 0
-99 -26 0
-34 -30 0
-37 -27 0
-27 -37 0
-60 -56 0
-56 -60 0
-61 -57 0
-57 -61 0
-58 -62 0
-62 -58 0
-51 -64 0
-64 -51 0
-67 -54 0
-68 -55 0
-55 -68 0
