projected/problems_b25_r0_d7_m100_s666/b25_d7_r0_s666_042.smt2
(set-logic QF_UF)
(declare-fun A0 () Bool)
(declare-fun A1 () Bool)
(declare-fun A2 () Bool)
(declare-fun A3 () Bool)
(declare-fun A4 () Bool)
(declare-fun A5 () Bool)
(declare-fun A6 () Bool)
(declare-fun A7 () Bool)
(declare-fun A8 () Bool)
(declare-fun A9 () Bool)
(declare-fun A10 () Bool)
(declare-fun A11 () Bool)
(declare-fun A12 () Bool)
(declare-fun A13 () Bool)
(declare-fun A14 () Bool)
(declare-fun A15 () Bool)
(declare-fun A16 () Bool)
(declare-fun A17 () Bool)
(declare-fun A18 () Bool)
(declare-fun A19 () Bool)
(declare-fun A20 () Bool)
(declare-fun A21 () Bool)
(declare-fun A22 () Bool)
(declare-fun A23 () Bool)
(declare-fun A24 () Bool)
(assert (let ((.def_0 (and A14 A0))) (let ((.def_1 (not A10))) (let ((.def_2 (and .def_1 A23))) (let ((.def_3 (or .def_2 .def_0))) (let ((.def_4 (not A17))) (let ((.def_5 (or .def_4 A10))) (let ((.def_6 (not .def_5))) (let ((.def_7 (and A7 A20))) (let ((.def_8 (and .def_7 .def_6))) (let ((.def_9 (not .def_8))) (let ((.def_10 (or .def_9 .def_3))) (let ((.def_11 (not .def_10))) (let ((.def_12 (not A7))) (let ((.def_13 (not A8))) (let ((.def_14 (= .def_13 .def_12))) (let ((.def_15 (or A12 A6))) (let ((.def_16 (not .def_15))) (let ((.def_17 (and .def_16 .def_14))) (let ((.def_18 (not .def_17))) (let ((.def_19 (not A21))) (let ((.def_20 (not A4))) (let ((.def_21 (and .def_20 .def_19))) (let ((.def_22 (not A19))) (let ((.def_23 (= A8 .def_22))) (let ((.def_24 (not .def_23))) (let ((.def_25 (or .def_24 .def_21))) (let ((.def_26 (and .def_25 .def_18))) (let ((.def_27 (not .def_26))) (let ((.def_28 (or .def_27 .def_11))) (let ((.def_29 (not A20))) (let ((.def_30 (not A5))) (let ((.def_31 (or .def_30 .def_29))) (let ((.def_32 (not .def_31))) (let ((.def_33 (or A23 .def_19))) (let ((.def_34 (or .def_33 .def_32))) (let ((.def_35 (not .def_34))) (let ((.def_36 (not A15))) (let ((.def_37 (and .def_36 A4))) (let ((.def_38 (not A6))) (let ((.def_39 (and .def_38 A1))) (let ((.def_40 (not .def_39))) (let ((.def_41 (and .def_40 .def_37))) (let ((.def_42 (not .def_41))) (let ((.def_43 (= .def_42 .def_35))) (let ((.def_44 (not .def_43))) (let ((.def_45 (not A12))) (let ((.def_46 (and .def_45 A9))) (let ((.def_47 (not A2))) (let ((.def_48 (and A1 .def_47))) (let ((.def_49 (not .def_48))) (let ((.def_50 (and .def_49 .def_46))) (let ((.def_51 (not A23))) (let ((.def_52 (or .def_51 A21))) (let ((.def_53 (not .def_52))) (let ((.def_54 (or .def_1 A19))) (let ((.def_55 (or .def_54 .def_53))) (let ((.def_56 (not .def_55))) (let ((.def_57 (or .def_56 .def_50))) (let ((.def_58 (not .def_57))) (let ((.def_59 (and .def_58 .def_44))) (let ((.def_60 (not .def_59))) (let ((.def_61 (and .def_60 .def_28))) (let ((.def_62 (and .def_22 .def_36))) (let ((.def_63 (not .def_62))) (let ((.def_64 (not A0))) (let ((.def_65 (and .def_64 A2))) (let ((.def_66 (not .def_65))) (let ((.def_67 (and .def_66 .def_63))) (let ((.def_68 (and .def_38 .def_12))) (let ((.def_69 (not .def_68))) (let ((.def_70 (not A22))) (let ((.def_71 (and A17 .def_70))) (let ((.def_72 (not .def_71))) (let ((.def_73 (and .def_72 .def_69))) (let ((.def_74 (or .def_73 .def_67))) (let ((.def_75 (not .def_74))) (let ((.def_76 (and A17 .def_29))) (let ((.def_77 (not A1))) (let ((.def_78 (and A7 .def_77))) (let ((.def_79 (or .def_78 .def_76))) (let ((.def_80 (not .def_79))) (let ((.def_81 (not A13))) (let ((.def_82 (or .def_81 A19))) (let ((.def_83 (and A19 A2))) (let ((.def_84 (and .def_83 .def_82))) (let ((.def_85 (not .def_84))) (let ((.def_86 (or .def_85 .def_80))) (let ((.def_87 (and .def_86 .def_75))) (let ((.def_88 (and A8 .def_70))) (let ((.def_89 (and .def_19 .def_45))) (let ((.def_90 (or .def_89 .def_88))) (let ((.def_91 (and .def_22 .def_29))) (let ((.def_92 (and .def_30 A16))) (let ((.def_93 (and .def_92 .def_91))) (let ((.def_94 (or .def_93 .def_90))) (let ((.def_95 (not .def_94))) (let ((.def_96 (not A16))) (let ((.def_97 (or A12 .def_96))) (let ((.def_98 (not .def_97))) (let ((.def_99 (not A9))) (let ((.def_100 (and .def_99 .def_30))) (let ((.def_101 (not .def_100))) (let ((.def_102 (and .def_101 .def_98))) (let ((.def_103 (= .def_30 .def_51))) (let ((.def_104 (not .def_103))) (let ((.def_105 (and .def_104 .def_16))) (let ((.def_106 (not .def_105))) (let ((.def_107 (or .def_106 .def_102))) (let ((.def_108 (not .def_107))) (let ((.def_109 (and .def_108 .def_95))) (let ((.def_110 (or .def_109 .def_87))) (let ((.def_111 (not .def_110))) (let ((.def_112 (= .def_111 .def_61))) (let ((.def_113 (or A20 A7))) (let ((.def_114 (not .def_113))) (let ((.def_115 (or A0 A11))) (let ((.def_116 (not .def_115))) (let ((.def_117 (or .def_116 .def_114))) (let ((.def_118 (or A20 .def_1))) (let ((.def_119 (not .def_118))) (let ((.def_120 (or .def_36 A17))) (let ((.def_121 (= .def_120 .def_119))) (let ((.def_122 (or .def_121 .def_117))) (let ((.def_123 (and A19 .def_70))) (let ((.def_124 (not .def_123))) (let ((.def_125 (and A4 .def_19))) (let ((.def_126 (or .def_125 .def_124))) (let ((.def_127 (or .def_1 A4))) (let ((.def_128 (not .def_127))) (let ((.def_129 (not A11))) (let ((.def_130 (or .def_129 A20))) (let ((.def_131 (not .def_130))) (let ((.def_132 (or .def_131 .def_128))) (let ((.def_133 (or .def_132 .def_126))) (let ((.def_134 (not .def_133))) (let ((.def_135 (or .def_134 .def_122))) (let ((.def_136 (and .def_70 A16))) (let ((.def_137 (not A3))) (let ((.def_138 (or .def_12 .def_137))) (let ((.def_139 (= .def_138 .def_136))) (let ((.def_140 (not .def_139))) (let ((.def_141 (= .def_38 .def_99))) (let ((.def_142 (= A1 A3))) (let ((.def_143 (not .def_142))) (let ((.def_144 (= .def_143 .def_141))) (let ((.def_145 (or .def_144 .def_140))) (let ((.def_146 (and .def_19 A9))) (let ((.def_147 (not .def_146))) (let ((.def_148 (or A9 .def_45))) (let ((.def_149 (and .def_148 .def_147))) (let ((.def_150 (not .def_149))) (let ((.def_151 (and .def_36 A2))) (let ((.def_152 (and .def_64 .def_20))) (let ((.def_153 (and .def_152 .def_151))) (let ((.def_154 (not .def_153))) (let ((.def_155 (or .def_154 .def_150))) (let ((.def_156 (and .def_155 .def_145))) (let ((.def_157 (and .def_156 .def_135))) (let ((.def_158 (or A21 .def_64))) (let ((.def_159 (not .def_158))) (let ((.def_160 (or .def_99 A22))) (let ((.def_161 (not .def_160))) (let ((.def_162 (or .def_161 .def_159))) (let ((.def_163 (not .def_162))) (let ((.def_164 (= .def_29 .def_29))) (let ((.def_165 (not .def_164))) (let ((.def_166 (= A16 A17))) (let ((.def_167 (and .def_166 .def_165))) (let ((.def_168 (not .def_167))) (let ((.def_169 (= .def_168 .def_163))) (let ((.def_170 (not .def_169))) (let ((.def_171 (and A13 A21))) (let ((.def_172 (not .def_171))) (let ((.def_173 (and A16 A23))) (let ((.def_174 (and .def_173 .def_172))) (let ((.def_175 (not .def_174))) (let ((.def_176 (not A18))) (let ((.def_177 (and .def_137 .def_176))) (let ((.def_178 (not .def_177))) (let ((.def_179 (and A24 A24))) (let ((.def_180 (not .def_179))) (let ((.def_181 (or .def_180 .def_178))) (let ((.def_182 (and .def_181 .def_175))) (let ((.def_183 (not .def_182))) (let ((.def_184 (or .def_183 .def_170))) (let ((.def_185 (not .def_184))) (let ((.def_186 (or A14 A11))) (let ((.def_187 (not .def_186))) (let ((.def_188 (or .def_1 A15))) (let ((.def_189 (not .def_188))) (let ((.def_190 (and .def_189 .def_187))) (let ((.def_191 (not .def_190))) (let ((.def_192 (or A15 A19))) (let ((.def_193 (and A7 A18))) (let ((.def_194 (not .def_193))) (let ((.def_195 (and .def_194 .def_192))) (let ((.def_196 (and .def_195 .def_191))) (let ((.def_197 (not .def_196))) (let ((.def_198 (and A8 A14))) (let ((.def_199 (and .def_29 .def_38))) (let ((.def_200 (or .def_199 .def_198))) (let ((.def_201 (and A1 .def_38))) (let ((.def_202 (and A9 A12))) (let ((.def_203 (not .def_202))) (let ((.def_204 (and .def_203 .def_201))) (let ((.def_205 (not .def_204))) (let ((.def_206 (or .def_205 .def_200))) (let ((.def_207 (and .def_206 .def_197))) (let ((.def_208 (or .def_207 .def_185))) (let ((.def_209 (and .def_208 .def_157))) (let ((.def_210 (not .def_209))) (let ((.def_211 (or .def_210 .def_112))) (let ((.def_212 (not .def_211))) .def_212))))))))))))))))))))))))))))))))))))))))))))))))))))))))))))))))))))))))))))))))))))))))))))))))))))))))))))))))))))))))))))))))))))))))))))))))))))))))))))))))))))))))))))))))))))))))))))))))))))))))))))))))))))))
(check-sat)
